
Gurobi 9.5.1 (linux64) logging started Sat Jul  2 10:17:40 2022

Set parameter LogFile to value "../results/logs/log_facebook_combined_17_250_2022_07_02_10_17.log"
Gurobi Optimizer version 9.5.1 build v9.5.1rc2 (linux64)
Thread count: 8 physical cores, 8 logical processors, using up to 8 threads
Optimize a model with 1003 rows, 8078 columns and 27347 nonzeros
Model fingerprint: 0x5a57ccb4
Coefficient statistics:
  Matrix range     [1e+00, 2e+01]
  Objective range  [1e+00, 1e+00]
  Bounds range     [1e+00, 1e+00]
  RHS range        [1e+00, 2e+02]
Presolve removed 30 rows and 6568 columns
Presolve time: 0.01s
Presolved: 973 rows, 1510 columns, 17224 nonzeros

Iteration    Objective       Primal Inf.    Dual Inf.      Time
       0    2.5620000e+03   1.166250e+02   0.000000e+00      0s
     678    2.5519620e+03   0.000000e+00   0.000000e+00      0s

Solved in 678 iterations and 0.02 seconds (0.02 work units)
Optimal objective  2.551961961e+03
